(benchmark gametime
:status unknown
:logic QF_AUFBV
:extrafuns ((gtINDEX82  BitVec[32]))
:extrafuns ((gtFIELD__bitsForTID0__gtAGG____anonstruct_D_Work_4  Array[32:32]))
:extrafuns ((gtINDEX83  BitVec[32]))
:extrafuns ((gtAGG__rtDWork  BitVec[32]))
:extrafuns ((gtINDEX80  BitVec[32]))
:extrafuns ((gtINDEX81  BitVec[32]))
:extrafuns ((gtINDEX78  BitVec[32]))
:extrafuns ((gtINDEX79  BitVec[32]))
:extrafuns ((gtINDEX76  BitVec[32]))
:extrafuns ((gtINDEX77  BitVec[32]))
:extrafuns ((gtINDEX75  BitVec[32]))
:extrafuns ((gtINDEX74  BitVec[32]))
:extrafuns ((gtINDEX73  BitVec[32]))
:extrafuns ((gtINDEX72  BitVec[32]))
:extrafuns ((gtINDEX70  BitVec[32]))
:extrafuns ((gtINDEX71  BitVec[32]))
:extrafuns ((gtINDEX68  BitVec[32]))
:extrafuns ((gtINDEX69  BitVec[32]))
:extrafuns ((gtINDEX66  BitVec[32]))
:extrafuns ((gtINDEX67  BitVec[32]))
:extrafuns ((gtINDEX64  BitVec[32]))
:extrafuns ((gtINDEX65  BitVec[32]))
:extrafuns ((gtINDEX63  BitVec[32]))
:extrafuns ((gtINDEX61  BitVec[32]))
:extrafuns ((gtINDEX62  BitVec[32]))
:extrafuns ((gtINDEX59  BitVec[32]))
:extrafuns ((gtINDEX60  BitVec[32]))
:extrafuns ((gtINDEX57  BitVec[32]))
:extrafuns ((gtINDEX58  BitVec[32]))
:extrafuns ((gtINDEX56  BitVec[32]))
:extrafuns ((gtINDEX54  BitVec[32]))
:extrafuns ((gtINDEX55  BitVec[32]))
:extrafuns ((gtINDEX53  BitVec[32]))
:extrafuns ((gtINDEX51  BitVec[32]))
:extrafuns ((gtINDEX52  BitVec[32]))
:extrafuns ((gtINDEX49  BitVec[32]))
:extrafuns ((gtINDEX50  BitVec[32]))
:extrafuns ((gtINDEX47  BitVec[32]))
:extrafuns ((gtINDEX48  BitVec[32]))
:extrafuns ((gtINDEX45  BitVec[32]))
:extrafuns ((gtINDEX46  BitVec[32]))
:extrafuns ((gtINDEX43  BitVec[32]))
:extrafuns ((gtINDEX44  BitVec[32]))
:extrafuns ((gtINDEX41  BitVec[32]))
:extrafuns ((gtINDEX42  BitVec[32]))
:extrafuns ((gtINDEX39  BitVec[32]))
:extrafuns ((gtINDEX40  BitVec[32]))
:extrafuns ((gtINDEX37  BitVec[32]))
:extrafuns ((gtINDEX38  BitVec[32]))
:extrafuns ((gtINDEX35  BitVec[32]))
:extrafuns ((gtINDEX36  BitVec[32]))
:extrafuns ((gtINDEX34  BitVec[32]))
:extrafuns ((gtINDEX33  BitVec[32]))
:extrafuns ((gtINDEX31  BitVec[32]))
:extrafuns ((gtINDEX32  BitVec[32]))
:extrafuns ((gtINDEX29  BitVec[32]))
:extrafuns ((gtINDEX30  BitVec[32]))
:extrafuns ((gtINDEX27  BitVec[32]))
:extrafuns ((gtINDEX28  BitVec[32]))
:extrafuns ((gtINDEX25  BitVec[32]))
:extrafuns ((gtINDEX26  BitVec[32]))
:extrafuns ((gtINDEX24  BitVec[32]))
:extrafuns ((gtINDEX22  BitVec[32]))
:extrafuns ((gtINDEX23  BitVec[32]))
:extrafuns ((gtINDEX20  BitVec[32]))
:extrafuns ((gtINDEX21  BitVec[32]))
:extrafuns ((gtINDEX18  BitVec[32]))
:extrafuns ((gtINDEX19  BitVec[32]))
:extrafuns ((gtINDEX16  BitVec[32]))
:extrafuns ((gtINDEX17  BitVec[32]))
:extrafuns ((gtINDEX14  BitVec[32]))
:extrafuns ((gtINDEX15  BitVec[32]))
:extrafuns ((gtINDEX12  BitVec[32]))
:extrafuns ((gtINDEX13  BitVec[32]))
:extrafuns ((gtINDEX10  BitVec[32]))
:extrafuns ((gtINDEX11  BitVec[32]))
:extrafuns ((gtINDEX8  BitVec[32]))
:extrafuns ((gtINDEX9  BitVec[32]))
:extrafuns ((gtINDEX6  BitVec[32]))
:extrafuns ((gtINDEX7  BitVec[32]))
:extrafuns ((gtINDEX4  BitVec[32]))
:extrafuns ((gtINDEX5  BitVec[32]))
:extrafuns ((gtINDEX2  BitVec[32]))
:extrafuns ((gtINDEX3  BitVec[32]))
:extrafuns ((gtINDEX0  BitVec[32]))
:extrafuns ((gtINDEX1  BitVec[32]))
:extrafuns ((gtFIELD__is_Eng__gtAGG____anonstruct_bitsForTID0_5_1_  Array[32:1]))
:extrafuns ((gtFIELD__is_Eng__gtAGG____anonstruct_bitsForTID0_5_2_  Array[32:1]))
:extrafuns ((sf_previousEvent_1_  BitVec[32]))
:extrafuns ((sfEvent__2_  BitVec[32]))
:extrafuns ((gtFIELD__is_Eng__gtAGG____anonstruct_bitsForTID0_5  Array[32:1]))
:extrafuns ((gtFIELD__sent__gtAGG____anonstruct_D_Work_4_1_  Array[32:32]))
:extrafuns ((gtFIELD__sent__gtAGG____anonstruct_D_Work_4_2_  Array[32:32]))
:extrafuns ((gtFIELD__is_active_Eng__gtAGG____anonstruct_bitsForTID0_5  Array[32:1]))
:extrafuns ((gtFIELD__is_active_PURI__gtAGG____anonstruct_bitsForTID0_5  Array[32:1]))
:extrafuns ((gtFIELD__is_active_PVRP__gtAGG____anonstruct_bitsForTID0_5  Array[32:1]))
:extrafuns ((gtFIELD__is_PPVARP__gtAGG____anonstruct_bitsForTID0_5  Array[32:2]))
:extrafuns ((gtFIELD__is_active_PPVARP__gtAGG____anonstruct_bitsForTID0_5  Array[32:1]))
:extrafuns ((gtFIELD__temporalCounter_i2__gtAGG____anonstruct_D_Work_4  Array[32:32]))
:extrafuns ((gtFIELD__temporalCounter_i2__gtAGG____anonstruct_D_Work_4_1_  Array[32:32]))
:extrafuns ((gtFIELD__is_PLRI__gtAGG____anonstruct_bitsForTID0_5  Array[32:2]))
:extrafuns ((gtFIELD__is_PLRI__gtAGG____anonstruct_bitsForTID0_5_1_  Array[32:2]))
:extrafuns ((gtFIELD__n_t_n__gtAGG____anonstruct_D_Work_4  Array[32:32]))
:extrafuns ((gtFIELD__n_t_n__gtAGG____anonstruct_D_Work_4_1_  Array[32:32]))
:extrafuns ((sfEvent__1_  BitVec[32]))
:extrafuns ((gtFIELD__is_active_PLRI__gtAGG____anonstruct_bitsForTID0_5  Array[32:1]))
:extrafuns ((gtFIELD__is_PAVI__gtAGG____anonstruct_bitsForTID0_5_1_  Array[32:3]))
:extrafuns ((gtFIELD__is_PAVI__gtAGG____anonstruct_bitsForTID0_5_2_  Array[32:3]))
:extrafuns ((gtFIELD__is_active_PAVI__gtAGG____anonstruct_bitsForTID0_5  Array[32:1]))
:extrafuns ((sfEvent_  BitVec[32]))
:extrafuns ((gtFIELD__sent__gtAGG____anonstruct_D_Work_4  Array[32:32]))
:extrafuns ((gtFIELD__is_PAVI__gtAGG____anonstruct_bitsForTID0_5  Array[32:3]))
:extrapreds ((constraint139 ))
:extrapreds ((constraint138 ))
:extrapreds ((constraint137 ))
:extrapreds ((constraint136 ))
:extrapreds ((constraint135 ))
:extrapreds ((constraint134 ))
:extrapreds ((constraint133 ))
:extrapreds ((constraint132 ))
:extrapreds ((constraint131 ))
:extrapreds ((constraint130 ))
:extrapreds ((constraint129 ))
:extrapreds ((constraint128 ))
:extrapreds ((constraint127 ))
:extrapreds ((constraint126 ))
:extrapreds ((constraint125 ))
:extrapreds ((constraint124 ))
:extrapreds ((constraint123 ))
:extrapreds ((constraint122 ))
:extrapreds ((constraint121 ))
:extrapreds ((constraint120 ))
:extrapreds ((constraint119 ))
:extrapreds ((constraint118 ))
:extrapreds ((constraint117 ))
:extrapreds ((constraint116 ))
:extrapreds ((constraint115 ))
:extrapreds ((constraint114 ))
:extrapreds ((constraint113 ))
:extrapreds ((constraint112 ))
:extrapreds ((constraint111 ))
:extrapreds ((constraint110 ))
:extrapreds ((constraint109 ))
:extrapreds ((constraint108 ))
:extrapreds ((constraint107 ))
:extrapreds ((constraint106 ))
:extrapreds ((constraint105 ))
:extrapreds ((constraint104 ))
:extrapreds ((constraint103 ))
:extrapreds ((constraint102 ))
:extrapreds ((constraint101 ))
:extrapreds ((constraint100 ))
:extrapreds ((constraint99 ))
:extrapreds ((constraint98 ))
:extrapreds ((constraint97 ))
:extrapreds ((constraint96 ))
:extrapreds ((constraint95 ))
:extrapreds ((constraint94 ))
:extrapreds ((constraint93 ))
:extrapreds ((constraint92 ))
:extrapreds ((constraint91 ))
:extrapreds ((constraint90 ))
:extrapreds ((constraint89 ))
:extrapreds ((constraint88 ))
:extrapreds ((constraint87 ))
:extrapreds ((constraint86 ))
:extrapreds ((constraint85 ))
:extrapreds ((constraint84 ))
:extrapreds ((constraint83 ))
:extrapreds ((constraint82 ))
:extrapreds ((constraint81 ))
:extrapreds ((constraint80 ))
:extrapreds ((constraint79 ))
:extrapreds ((constraint78 ))
:extrapreds ((constraint77 ))
:extrapreds ((constraint76 ))
:extrapreds ((constraint75 ))
:extrapreds ((constraint74 ))
:extrapreds ((constraint73 ))
:extrapreds ((constraint72 ))
:extrapreds ((constraint71 ))
:extrapreds ((constraint70 ))
:extrapreds ((constraint69 ))
:extrapreds ((constraint68 ))
:extrapreds ((constraint67 ))
:extrapreds ((constraint66 ))
:extrapreds ((constraint65 ))
:extrapreds ((constraint64 ))
:extrapreds ((constraint63 ))
:extrapreds ((constraint62 ))
:extrapreds ((constraint61 ))
:extrapreds ((constraint60 ))
:extrapreds ((constraint59 ))
:extrapreds ((constraint58 ))
:extrapreds ((constraint57 ))
:extrapreds ((constraint56 ))
:extrapreds ((constraint55 ))
:extrapreds ((constraint54 ))
:extrapreds ((constraint53 ))
:extrapreds ((constraint52 ))
:extrapreds ((constraint51 ))
:extrapreds ((constraint50 ))
:extrapreds ((constraint49 ))
:extrapreds ((constraint48 ))
:extrapreds ((constraint47 ))
:extrapreds ((constraint46 ))
:extrapreds ((constraint45 ))
:extrapreds ((constraint44 ))
:extrapreds ((constraint43 ))
:extrapreds ((constraint42 ))
:extrapreds ((constraint41 ))
:extrapreds ((constraint40 ))
:extrapreds ((constraint39 ))
:extrapreds ((constraint38 ))
:extrapreds ((constraint37 ))
:extrapreds ((constraint36 ))
:extrapreds ((constraint35 ))
:extrapreds ((constraint34 ))
:extrapreds ((constraint33 ))
:extrapreds ((constraint32 ))
:extrapreds ((constraint31 ))
:extrapreds ((constraint30 ))
:extrapreds ((constraint29 ))
:extrapreds ((constraint28 ))
:extrapreds ((constraint27 ))
:extrapreds ((constraint26 ))
:extrapreds ((constraint25 ))
:extrapreds ((constraint24 ))
:extrapreds ((constraint23 ))
:extrapreds ((constraint22 ))
:extrapreds ((constraint21 ))
:extrapreds ((constraint20 ))
:extrapreds ((constraint19 ))
:extrapreds ((constraint18 ))
:extrapreds ((constraint17 ))
:extrapreds ((constraint16 ))
:extrapreds ((constraint15 ))
:extrapreds ((constraint14 ))
:extrapreds ((constraint13 ))
:extrapreds ((constraint12 ))
:extrapreds ((constraint11 ))
:extrapreds ((constraint10 ))
:extrapreds ((constraint9 ))
:extrapreds ((constraint8 ))
:extrapreds ((constraint7 ))
:extrapreds ((constraint6 ))
:extrapreds ((constraint5 ))
:extrapreds ((constraint4 ))
:extrapreds ((constraint3 ))
:extrapreds ((constraint2 ))
:extrapreds ((constraint1 ))
:extrapreds ((constraint0 ))
:formula
(flet ($x720 (and constraint0 constraint1 constraint2 constraint3 constraint4 constraint5 constraint6 constraint7 constraint8 constraint9 constraint10 constraint11 constraint12 constraint13 constraint14 constraint15 constraint16 constraint17 constraint18 constraint19 constraint20 constraint21 constraint22 constraint23 constraint24 constraint25 constraint26 constraint27 constraint28 constraint29 constraint30 constraint31 constraint32 constraint33 constraint34 constraint35 constraint36 constraint37 constraint38 constraint39 constraint40 constraint41 constraint42 constraint43 constraint44 constraint45 constraint46 constraint47 constraint48 constraint49 constraint50 constraint51 constraint52 constraint53 constraint54 constraint55 constraint56 constraint57 constraint58 constraint59 constraint60 constraint61 constraint62 constraint63 constraint64 constraint65 constraint66 constraint67 constraint68 constraint69 constraint70 constraint71 constraint72 constraint73 constraint74 constraint75 constraint76 constraint77 constraint78 constraint79 constraint80 constraint81 constraint82 constraint83 constraint84 constraint85 constraint86 constraint87 constraint88 constraint89 constraint90 constraint91 constraint92 constraint93 constraint94 constraint95 constraint96 constraint97 constraint98 constraint99 constraint100 constraint101 constraint102 constraint103 constraint104 constraint105 constraint106 constraint107 constraint108 constraint109 constraint110 constraint111 constraint112 constraint113 constraint114 constraint115 constraint116 constraint117 constraint118 constraint119 constraint120 constraint121 constraint122 constraint123 constraint124 constraint125 constraint126 constraint127 constraint128 constraint129 constraint130 constraint131 constraint132 constraint133 constraint134 constraint135 constraint136 constraint137 constraint138 constraint139))
(flet ($x438 (= gtINDEX83 (select gtFIELD__bitsForTID0__gtAGG____anonstruct_D_Work_4 gtINDEX82)))
(flet ($x434 (= gtINDEX81 (select gtFIELD__bitsForTID0__gtAGG____anonstruct_D_Work_4 gtINDEX80)))
(flet ($x430 (= gtINDEX79 (select gtFIELD__bitsForTID0__gtAGG____anonstruct_D_Work_4 gtINDEX78)))
(flet ($x426 (= gtINDEX77 (select gtFIELD__bitsForTID0__gtAGG____anonstruct_D_Work_4 gtINDEX76)))
(flet ($x418 (= gtINDEX71 (select gtFIELD__bitsForTID0__gtAGG____anonstruct_D_Work_4 gtINDEX70)))
(flet ($x414 (= gtINDEX69 (select gtFIELD__bitsForTID0__gtAGG____anonstruct_D_Work_4 gtINDEX68)))
(flet ($x410 (= gtINDEX67 (select gtFIELD__bitsForTID0__gtAGG____anonstruct_D_Work_4 gtINDEX66)))
(flet ($x406 (= gtINDEX65 (select gtFIELD__bitsForTID0__gtAGG____anonstruct_D_Work_4 gtINDEX64)))
(flet ($x401 (= gtINDEX62 (select gtFIELD__bitsForTID0__gtAGG____anonstruct_D_Work_4 gtINDEX61)))
(flet ($x397 (= gtINDEX60 (select gtFIELD__bitsForTID0__gtAGG____anonstruct_D_Work_4 gtINDEX59)))
(flet ($x393 (= gtINDEX58 (select gtFIELD__bitsForTID0__gtAGG____anonstruct_D_Work_4 gtINDEX57)))
(flet ($x388 (= gtINDEX55 (select gtFIELD__bitsForTID0__gtAGG____anonstruct_D_Work_4 gtINDEX54)))
(flet ($x383 (= gtINDEX52 (select gtFIELD__bitsForTID0__gtAGG____anonstruct_D_Work_4 gtINDEX51)))
(flet ($x379 (= gtINDEX50 (select gtFIELD__bitsForTID0__gtAGG____anonstruct_D_Work_4 gtINDEX49)))
(flet ($x375 (= gtINDEX48 (select gtFIELD__bitsForTID0__gtAGG____anonstruct_D_Work_4 gtINDEX47)))
(flet ($x371 (= gtINDEX46 (select gtFIELD__bitsForTID0__gtAGG____anonstruct_D_Work_4 gtINDEX45)))
(flet ($x367 (= gtINDEX44 (select gtFIELD__bitsForTID0__gtAGG____anonstruct_D_Work_4 gtINDEX43)))
(flet ($x363 (= gtINDEX42 (select gtFIELD__bitsForTID0__gtAGG____anonstruct_D_Work_4 gtINDEX41)))
(flet ($x359 (= gtINDEX40 (select gtFIELD__bitsForTID0__gtAGG____anonstruct_D_Work_4 gtINDEX39)))
(flet ($x355 (= gtINDEX38 (select gtFIELD__bitsForTID0__gtAGG____anonstruct_D_Work_4 gtINDEX37)))
(flet ($x351 (= gtINDEX36 (select gtFIELD__bitsForTID0__gtAGG____anonstruct_D_Work_4 gtINDEX35)))
(flet ($x345 (= gtINDEX32 (select gtFIELD__bitsForTID0__gtAGG____anonstruct_D_Work_4 gtINDEX31)))
(flet ($x341 (= gtINDEX30 (select gtFIELD__bitsForTID0__gtAGG____anonstruct_D_Work_4 gtINDEX29)))
(flet ($x337 (= gtINDEX28 (select gtFIELD__bitsForTID0__gtAGG____anonstruct_D_Work_4 gtINDEX27)))
(flet ($x333 (= gtINDEX26 (select gtFIELD__bitsForTID0__gtAGG____anonstruct_D_Work_4 gtINDEX25)))
(flet ($x328 (= gtINDEX23 (select gtFIELD__bitsForTID0__gtAGG____anonstruct_D_Work_4 gtINDEX22)))
(flet ($x324 (= gtINDEX21 (select gtFIELD__bitsForTID0__gtAGG____anonstruct_D_Work_4 gtINDEX20)))
(flet ($x320 (= gtINDEX19 (select gtFIELD__bitsForTID0__gtAGG____anonstruct_D_Work_4 gtINDEX18)))
(flet ($x316 (= gtINDEX17 (select gtFIELD__bitsForTID0__gtAGG____anonstruct_D_Work_4 gtINDEX16)))
(flet ($x312 (= gtINDEX15 (select gtFIELD__bitsForTID0__gtAGG____anonstruct_D_Work_4 gtINDEX14)))
(flet ($x308 (= gtINDEX13 (select gtFIELD__bitsForTID0__gtAGG____anonstruct_D_Work_4 gtINDEX12)))
(flet ($x304 (= gtINDEX11 (select gtFIELD__bitsForTID0__gtAGG____anonstruct_D_Work_4 gtINDEX10)))
(flet ($x300 (= gtINDEX9 (select gtFIELD__bitsForTID0__gtAGG____anonstruct_D_Work_4 gtINDEX8)))
(flet ($x296 (= gtINDEX7 (select gtFIELD__bitsForTID0__gtAGG____anonstruct_D_Work_4 gtINDEX6)))
(flet ($x292 (= gtINDEX5 (select gtFIELD__bitsForTID0__gtAGG____anonstruct_D_Work_4 gtINDEX4)))
(flet ($x288 (= gtINDEX3 (select gtFIELD__bitsForTID0__gtAGG____anonstruct_D_Work_4 gtINDEX2)))
(flet ($x284 (= gtINDEX1 (select gtFIELD__bitsForTID0__gtAGG____anonstruct_D_Work_4 gtINDEX0)))
(let (?x268 (extract[0:0] bv1[32]))
(let (?x278 (store gtFIELD__is_Eng__gtAGG____anonstruct_bitsForTID0_5_1_ gtINDEX83 ?x268))
(flet ($x550 (iff constraint55 (= gtFIELD__is_Eng__gtAGG____anonstruct_bitsForTID0_5_2_ ?x278)))
(let (?x274 (select gtFIELD__is_Eng__gtAGG____anonstruct_bitsForTID0_5_1_ gtINDEX81))
(let (?x269 (store gtFIELD__is_Eng__gtAGG____anonstruct_bitsForTID0_5 gtINDEX79 ?x268))
(flet ($x544 (iff constraint52 (= gtFIELD__is_Eng__gtAGG____anonstruct_bitsForTID0_5_1_ ?x269)))
(let (?x265 (zero_extend[31] (select gtFIELD__is_Eng__gtAGG____anonstruct_bitsForTID0_5 gtINDEX77)))
(let (?x261 (store gtFIELD__sent__gtAGG____anonstruct_D_Work_4_1_ gtINDEX75 bv0[32]))
(flet ($x540 (iff constraint50 (= gtFIELD__sent__gtAGG____anonstruct_D_Work_4_2_ ?x261)))
(let (?x146 (bvmul bv4294967295[32] bv1[32]))
(flet ($x259 (= (select gtFIELD__sent__gtAGG____anonstruct_D_Work_4_1_ gtINDEX74) ?x146))
(flet ($x255 (= (select gtFIELD__sent__gtAGG____anonstruct_D_Work_4_1_ gtINDEX73) bv9[32]))
(flet ($x250 (= (select gtFIELD__sent__gtAGG____anonstruct_D_Work_4_1_ gtINDEX72) bv4[32]))
(let (?x246 (zero_extend[31] (select gtFIELD__is_Eng__gtAGG____anonstruct_bitsForTID0_5 gtINDEX71)))
(let (?x240 (select gtFIELD__is_active_Eng__gtAGG____anonstruct_bitsForTID0_5 gtINDEX69))
(let (?x234 (select gtFIELD__is_active_PURI__gtAGG____anonstruct_bitsForTID0_5 gtINDEX67))
(let (?x228 (select gtFIELD__is_active_PVRP__gtAGG____anonstruct_bitsForTID0_5 gtINDEX65))
(flet ($x225 (= (select gtFIELD__sent__gtAGG____anonstruct_D_Work_4_1_ gtINDEX63) bv0[32]))
(let (?x220 (select gtFIELD__is_PPVARP__gtAGG____anonstruct_bitsForTID0_5 gtINDEX62))
(let (?x215 (select gtFIELD__is_PPVARP__gtAGG____anonstruct_bitsForTID0_5 gtINDEX60))
(let (?x210 (select gtFIELD__is_active_PPVARP__gtAGG____anonstruct_bitsForTID0_5 gtINDEX58))
(let (?x207 (store gtFIELD__temporalCounter_i2__gtAGG____anonstruct_D_Work_4 gtINDEX56 bv0[32]))
(flet ($x516 (iff constraint38 (= gtFIELD__temporalCounter_i2__gtAGG____anonstruct_D_Work_4_1_ ?x207)))
(let (?x204 (store gtFIELD__is_PLRI__gtAGG____anonstruct_bitsForTID0_5 gtINDEX55 (extract[1:0] bv1[32])))
(flet ($x514 (iff constraint37 (= gtFIELD__is_PLRI__gtAGG____anonstruct_bitsForTID0_5_1_ ?x204)))
(flet ($x201 (= gtFIELD__n_t_n__gtAGG____anonstruct_D_Work_4_1_ (store gtFIELD__n_t_n__gtAGG____anonstruct_D_Work_4 gtINDEX53 bv0[32])))
(let (?x194 (select gtFIELD__is_PLRI__gtAGG____anonstruct_bitsForTID0_5 gtINDEX52))
(let (?x189 (select gtFIELD__is_PLRI__gtAGG____anonstruct_bitsForTID0_5 gtINDEX50))
(let (?x184 (select gtFIELD__is_active_PLRI__gtAGG____anonstruct_bitsForTID0_5 gtINDEX48))
(let (?x80 (extract[2:0] bv0[32]))
(let (?x181 (store gtFIELD__is_PAVI__gtAGG____anonstruct_bitsForTID0_5_1_ gtINDEX46 ?x80))
(flet ($x500 (iff constraint30 (= gtFIELD__is_PAVI__gtAGG____anonstruct_bitsForTID0_5_2_ ?x181)))
(let (?x176 (select gtFIELD__is_PAVI__gtAGG____anonstruct_bitsForTID0_5_1_ gtINDEX44))
(let (?x171 (select gtFIELD__is_PAVI__gtAGG____anonstruct_bitsForTID0_5_1_ gtINDEX42))
(let (?x166 (select gtFIELD__is_PAVI__gtAGG____anonstruct_bitsForTID0_5_1_ gtINDEX40))
(let (?x161 (select gtFIELD__is_PAVI__gtAGG____anonstruct_bitsForTID0_5_1_ gtINDEX38))
(let (?x156 (select gtFIELD__is_active_PAVI__gtAGG____anonstruct_bitsForTID0_5 gtINDEX36))
(flet ($x148 (= gtFIELD__sent__gtAGG____anonstruct_D_Work_4_1_ (store gtFIELD__sent__gtAGG____anonstruct_D_Work_4 gtINDEX34 ?x146)))
(flet ($x143 (= (select gtFIELD__sent__gtAGG____anonstruct_D_Work_4 gtINDEX33) bv4[32]))
(let (?x139 (zero_extend[31] (select gtFIELD__is_Eng__gtAGG____anonstruct_bitsForTID0_5 gtINDEX32)))
(let (?x133 (select gtFIELD__is_active_Eng__gtAGG____anonstruct_bitsForTID0_5 gtINDEX30))
(let (?x127 (select gtFIELD__is_active_PURI__gtAGG____anonstruct_bitsForTID0_5 gtINDEX28))
(let (?x121 (select gtFIELD__is_active_PVRP__gtAGG____anonstruct_bitsForTID0_5 gtINDEX26))
(flet ($x118 (= (select gtFIELD__sent__gtAGG____anonstruct_D_Work_4 gtINDEX24) bv0[32]))
(let (?x113 (select gtFIELD__is_PPVARP__gtAGG____anonstruct_bitsForTID0_5 gtINDEX23))
(let (?x108 (select gtFIELD__is_PPVARP__gtAGG____anonstruct_bitsForTID0_5 gtINDEX21))
(let (?x103 (select gtFIELD__is_active_PPVARP__gtAGG____anonstruct_bitsForTID0_5 gtINDEX19))
(let (?x94 (select gtFIELD__is_PLRI__gtAGG____anonstruct_bitsForTID0_5 gtINDEX17))
(let (?x89 (select gtFIELD__is_PLRI__gtAGG____anonstruct_bitsForTID0_5 gtINDEX15))
(let (?x84 (select gtFIELD__is_active_PLRI__gtAGG____anonstruct_bitsForTID0_5 gtINDEX13))
(let (?x81 (store gtFIELD__is_PAVI__gtAGG____anonstruct_bitsForTID0_5 gtINDEX11 ?x80))
(flet ($x452 (iff constraint6 (= gtFIELD__is_PAVI__gtAGG____anonstruct_bitsForTID0_5_1_ ?x81)))
(let (?x75 (zero_extend[29] (select gtFIELD__is_PAVI__gtAGG____anonstruct_bitsForTID0_5 gtINDEX9)))
(let (?x69 (zero_extend[29] (select gtFIELD__is_PAVI__gtAGG____anonstruct_bitsForTID0_5 gtINDEX7)))
(let (?x63 (zero_extend[29] (select gtFIELD__is_PAVI__gtAGG____anonstruct_bitsForTID0_5 gtINDEX5)))
(let (?x57 (zero_extend[29] (select gtFIELD__is_PAVI__gtAGG____anonstruct_bitsForTID0_5 gtINDEX3)))
(let (?x50 (select gtFIELD__is_active_PAVI__gtAGG____anonstruct_bitsForTID0_5 gtINDEX1))
(flet ($x719 (and (iff constraint0 (not (= sfEvent_ bv8[32]))) (iff constraint1 (not (= (zero_extend[31] ?x50) bv0[32]))) (iff constraint2 (not (= ?x57 bv1[32]))) (iff constraint3 (not (= ?x63 bv2[32]))) (iff constraint4 (not (= ?x69 bv3[32]))) (iff constraint5 (not (= ?x75 bv4[32]))) $x452 (iff constraint7 (not (= (zero_extend[31] ?x84) bv0[32]))) (iff constraint8 (not (= (zero_extend[30] ?x89) bv1[32]))) (iff constraint9 (= (zero_extend[30] ?x94) bv2[32])) (iff constraint10 (not (= sfEvent_ bv4[32]))) (iff constraint11 (not (= sfEvent_ bv5[32]))) (iff constraint12 (not (= (zero_extend[31] ?x103) bv0[32]))) (iff constraint13 (not (= (zero_extend[30] ?x108) bv1[32]))) (iff constraint14 (= (zero_extend[30] ?x113) bv2[32])) (iff constraint15 (not $x118)) (iff constraint16 (not (not (= (zero_extend[31] ?x121) bv0[32])))) (iff constraint17 (not (not (= (zero_extend[31] ?x127) bv0[32])))) (iff constraint18 (not (= (zero_extend[31] ?x133) bv0[32]))) (iff constraint19 (= ?x139 bv1[32])) (iff constraint20 $x143) (iff constraint21 $x148) (iff constraint22 (= sf_previousEvent_1_ sfEvent_)) (iff constraint23 (= sfEvent__1_ bv5[32])) (iff constraint24 (not (= sfEvent__1_ bv8[32]))) (iff constraint25 (not (= (zero_extend[31] ?x156) bv0[32]))) (iff constraint26 (not (= (zero_extend[29] ?x161) bv1[32]))) (iff constraint27 (not (= (zero_extend[29] ?x166) bv2[32]))) (iff constraint28 (not (= (zero_extend[29] ?x171) bv3[32]))) (iff constraint29 (not (= (zero_extend[29] ?x176) bv4[32]))) $x500 (iff constraint31 (not (= (zero_extend[31] ?x184) bv0[32]))) (iff constraint32 (not (= (zero_extend[30] ?x189) bv1[32]))) (iff constraint33 (= (zero_extend[30] ?x194) bv2[32])) (iff constraint34 (not (= sfEvent__1_ bv4[32]))) (iff constraint35 (= sfEvent__1_ bv5[32])) (iff constraint36 $x201) $x514 $x516 (iff constraint39 (not (= (zero_extend[31] ?x210) bv0[32]))) (iff constraint40 (not (= (zero_extend[30] ?x215) bv1[32]))) (iff constraint41 (= (zero_extend[30] ?x220) bv2[32])) (iff constraint42 (not $x225)) (iff constraint43 (not (not (= (zero_extend[31] ?x228) bv0[32])))) (iff constraint44 (not (not (= (zero_extend[31] ?x234) bv0[32])))) (iff constraint45 (not (= (zero_extend[31] ?x240) bv0[32]))) (iff constraint46 (= ?x246 bv1[32])) (iff constraint47 (not $x250)) (iff constraint48 (not $x255)) (iff constraint49 $x259) $x540 (iff constraint51 (= ?x265 bv1[32])) $x544 (iff constraint53 (= sfEvent__2_ sf_previousEvent_1_)) (iff constraint54 (= (zero_extend[31] ?x274) bv1[32])) $x550 (iff constraint56 (= gtINDEX0 gtAGG__rtDWork)) (iff constraint57 $x284) (iff constraint58 (= gtINDEX2 gtAGG__rtDWork)) (iff constraint59 $x288) (iff constraint60 (= gtINDEX4 gtAGG__rtDWork)) (iff constraint61 $x292) (iff constraint62 (= gtINDEX6 gtAGG__rtDWork)) (iff constraint63 $x296) (iff constraint64 (= gtINDEX8 gtAGG__rtDWork)) (iff constraint65 $x300) (iff constraint66 (= gtINDEX10 gtAGG__rtDWork)) (iff constraint67 $x304) (iff constraint68 (= gtINDEX12 gtAGG__rtDWork)) (iff constraint69 $x308) (iff constraint70 (= gtINDEX14 gtAGG__rtDWork)) (iff constraint71 $x312) (iff constraint72 (= gtINDEX16 gtAGG__rtDWork)) (iff constraint73 $x316) (iff constraint74 (= gtINDEX18 gtAGG__rtDWork)) (iff constraint75 $x320) (iff constraint76 (= gtINDEX20 gtAGG__rtDWork)) (iff constraint77 $x324) (iff constraint78 (= gtINDEX22 gtAGG__rtDWork)) (iff constraint79 $x328) (iff constraint80 (= gtINDEX24 gtAGG__rtDWork)) (iff constraint81 (= gtINDEX25 gtAGG__rtDWork)) (iff constraint82 $x333) (iff constraint83 (= gtINDEX27 gtAGG__rtDWork)) (iff constraint84 $x337) (iff constraint85 (= gtINDEX29 gtAGG__rtDWork)) (iff constraint86 $x341) (iff constraint87 (= gtINDEX31 gtAGG__rtDWork)) (iff constraint88 $x345) (iff constraint89 (= gtINDEX33 gtAGG__rtDWork)) (iff constraint90 (= gtINDEX34 gtAGG__rtDWork)) (iff constraint91 (= gtINDEX35 gtAGG__rtDWork)) (iff constraint92 $x351) (iff constraint93 (= gtINDEX37 gtAGG__rtDWork)) (iff constraint94 $x355) (iff constraint95 (= gtINDEX39 gtAGG__rtDWork)) (iff constraint96 $x359) (iff constraint97 (= gtINDEX41 gtAGG__rtDWork)) (iff constraint98 $x363) (iff constraint99 (= gtINDEX43 gtAGG__rtDWork)) (iff constraint100 $x367) (iff constraint101 (= gtINDEX45 gtAGG__rtDWork)) (iff constraint102 $x371) (iff constraint103 (= gtINDEX47 gtAGG__rtDWork)) (iff constraint104 $x375) (iff constraint105 (= gtINDEX49 gtAGG__rtDWork)) (iff constraint106 $x379) (iff constraint107 (= gtINDEX51 gtAGG__rtDWork)) (iff constraint108 $x383) (iff constraint109 (= gtINDEX53 gtAGG__rtDWork)) (iff constraint110 (= gtINDEX54 gtAGG__rtDWork)) (iff constraint111 $x388) (iff constraint112 (= gtINDEX56 gtAGG__rtDWork)) (iff constraint113 (= gtINDEX57 gtAGG__rtDWork)) (iff constraint114 $x393) (iff constraint115 (= gtINDEX59 gtAGG__rtDWork)) (iff constraint116 $x397) (iff constraint117 (= gtINDEX61 gtAGG__rtDWork)) (iff constraint118 $x401) (iff constraint119 (= gtINDEX63 gtAGG__rtDWork)) (iff constraint120 (= gtINDEX64 gtAGG__rtDWork)) (iff constraint121 $x406) (iff constraint122 (= gtINDEX66 gtAGG__rtDWork)) (iff constraint123 $x410) (iff constraint124 (= gtINDEX68 gtAGG__rtDWork)) (iff constraint125 $x414) (iff constraint126 (= gtINDEX70 gtAGG__rtDWork)) (iff constraint127 $x418) (iff constraint128 (= gtINDEX72 gtAGG__rtDWork)) (iff constraint129 (= gtINDEX73 gtAGG__rtDWork)) (iff constraint130 (= gtINDEX74 gtAGG__rtDWork)) (iff constraint131 (= gtINDEX75 gtAGG__rtDWork)) (iff constraint132 (= gtINDEX76 gtAGG__rtDWork)) (iff constraint133 $x426) (iff constraint134 (= gtINDEX78 gtAGG__rtDWork)) (iff constraint135 $x430) (iff constraint136 (= gtINDEX80 gtAGG__rtDWork)) (iff constraint137 $x434) (iff constraint138 (= gtINDEX82 gtAGG__rtDWork)) (iff constraint139 $x438)))
(and $x719 $x720)))))))))))))))))))))))))))))))))))))))))))))))))))))))))))))))))))))))))))))))))))))))))))))))))
)
